1562702
54,47,13,65,20,4,48,2,45,27,17,9,58,15,8,68,35,51,39,62,37,53,44,14,10,18,57,33,52,22,31,28,50,36,59,16,63,24,61,3,21,38,64,67,7,43,46,34,55,26,66,11,6,41,30,25,29,60,23,49,19,5,40,56,32,42,12,1,54